(set-info :smt-lib-version 2.6)
(set-logic QF_NRA)
(set-info :source |
Generated by: Ali K. Uncu, Matthew England, and James H. Davenport
Generated on: 2022-01-06

Generator: SUMCracker-ProveInequality function by Manuel Kauers ("https://www3.risc.jku.at/research/combinat/software/ergosum/RISC/SumCracker.html")
Translated to SMT-Lib by Maple SMTLIB package.

Application: CAD calls of SUMCracker-ProveInequality to prove (7.31, in Mitrinovic's Inequalities Book) in 
S. Gerhold and M. Kauers, A Procedure for Proving Special Function Inequalities Involving a Discrete Parameter.
ISSAC '05: Proceedings of the 2005 international symposium on Symbolic and algebraic computationJuly 2005 Pages 156-162.
(https://dl.acm.org/doi/10.1145/1073884.1073907)

All denominators in the original CAD call got cleared by introducing disjunctions with sign conditions:
a/b == c/d --> a d==b c && b<>0 && d<>0
a/b > c  --> a >=b c && b >0  ||  a <= b c && b < 0
|)
(set-info :license "https://creativecommons.org/licenses/by/4.0/")
(set-info :status unsat)
(set-info :category "industrial")

(declare-fun V1 () Real)
(declare-fun V2 () Real)
(declare-fun V3 () Real)
(declare-fun V4 () Real)
(declare-fun V5 () Real)
(assert (and (< 0 V1) (< 0 V2) (or (and (< 0 (+ (- 1) V3)) (< (* V3 V3) (* (+ (- 1) V3) V5))) (and (< V3 1) (< (* (+ (- 1) V3) V5) (* V3 V3)))) (<= 2 V3) (<= 0 (+ (- 1) V3)) (<= 0 V4) (<= 0 (+ V2 V4)) (or (and (or (and (< 0 V4) (< 0 V3)) (and (< V4 0) (< V3 0))) (<= (* V3 (+ V2 (* V4 (+ 1 V5)))) (* (* (+ 1 V3) (+ 1 V3)) V4))) (and (or (and (< 0 V4) (< V3 0)) (and (< V4 0) (< 0 V3))) (<= (* (* (+ 1 V3) (+ 1 V3)) V4) (* V3 (+ V2 (* V4 (+ 1 V5)))))))))
(check-sat)
(exit)





















